n_res = 4;
rc = [ 31, 34, 28, 26 ];
n_tasks = 30;
d = [ 9, 10, 6, 9, 4, 8, 3, 4, 7, 5, 2, 1, 10, 9, 1, 8, 6, 9, 2, 5, 1, 5, 10, 4, 6, 7, 8, 10, 10, 4 ];
rr = [| 31, 31, 31, 31, 31, 31, 31, 31, 31, 31, 31, 31, 31, 31, 31, 31, 31, 31, 31, 31, 31, 31, 31, 31, 31, 31, 31, 31, 31, 31
      | 34, 34, 34, 34, 34, 34, 34, 34, 34, 34, 34, 34, 34, 34, 34, 34, 34, 34, 34, 34, 34, 34, 34, 34, 34, 34, 34, 34, 34, 34
      | 28, 28, 28, 28, 28, 28, 28, 28, 28, 28, 28, 28, 28, 28, 28, 28, 28, 28, 28, 28, 28, 28, 28, 28, 28, 28, 28, 28, 28, 28
      | 26, 26, 26, 26, 26, 26, 26, 26, 26, 26, 26, 26, 26, 26, 26, 26, 26, 26, 26, 26, 26, 26, 26, 26, 26, 26, 26, 26, 26, 26|];
suc = [ { 7, 16, 19 },
       { 4, 5, 10 },
       { 8, 10, 13 },
       { 13, 15, 21 },
       { 6, 17 },
       { 9, 12, 14 },
       { 8, 10, 13 },
       { 12, 15, 23 },
       { 11, 15, 21 },
       { 11, 17, 20 },
       { 22, 29, 30 },
       { 18, 26, 28 },
       { 17, 25 },
       { 19, 28 },
       { 18, 20, 22 },
       { 18, 22, 26 },
       { 23, 24, 30 },
       { 25 },
       { 21, 23 },
       { 24, 27 },
       { 25, 27 },
       { 24 },
       { 26, 27 },
       { 28 },
       { 30 },
       { 29 },
       { 29 },
       {  },
       {  },
       {  } ];
